# Solution for model obj
# Objective value = 55
x#1 1
x#2 1
x#3 1
x#4 0
x#5 1
x#6 0
x#7 1
x#8 1
x#9 1
x#10 0
x#11 1
x#12 1
x#13 1
x#14 0
x#15 1
x#16 1
x#17 1
x#18 1
x#19 0
x#20 1
x#21 1
x#22 1
x#23 0
x#24 0
x#25 1
x#26 0
x#27 1
x#28 0
x#29 0
x#30 1
x#31 1
x#32 0
x#33 1
x#34 1
x#35 1
x#36 1
x#37 0
x#38 0
x#39 1
x#40 1
x#41 1
x#42 0
x#43 1
x#44 1
x#45 1
x#46 1
x#47 1
x#48 1
x#49 0
x#50 0
x#51 0
x#52 0
x#53 1
x#54 1
x#55 1
x#56 0
x#57 1
x#58 1
x#59 1
x#60 1
x#61 0
x#62 0
x#63 1
x#64 1
x#65 0
x#66 0
x#67 0
x#68 0
x#69 0
x#70 1
x#71 0
x#72 0
x#73 0
x#74 0
x#75 0
x#76 0
x#77 0
x#78 1
x#79 1
x#80 0
x#81 0
x#82 0
x#83 1
x#84 0
x#85 0
x#86 1
x#87 0
x#88 0
x#89 0
x#90 1
x#91 0
x#92 1
x#93 0
x#94 1
x#95 0
x#96 0
x#97 0
x#98 0
x#99 0
x#100 0
x#101 1
x#102 0
x#103 1
x#104 0
x#105 1
x#106 0
x#107 0
x#108 0
x#109 1
x#110 0
x#111 0
x#112 0
x#113 0
